WARNING: for repeatability, setting FPU to use double precision
============================[ Problem Statistics ]=============================
|                                                                             |
|  Number of variables:        505536                                         |
|  Number of clauses:         1595120                                         |
|  Parse time:                   0.71 s                                       |
|                                                                             |
c ============================[ Search Statistics ]==============================
c | Conflicts |          ORIGINAL         |          LEARNT          | Progress |
c |           |    Vars  Clauses Literals |    Limit  Clauses Lit/Cl |          |
c ===============================================================================
We had 9 decisions of which only 0 were on extended
We had 2238513 decisions of which only 0 were on extended
c Switched to VSIDS.
c Switched to LRB.
c Switched to VSIDS.
c Switched to LRB.
We had 4861391 decisions of which only 0 were on extended
c Switched to VSIDS.
c Switched to LRB.
c Switched to VSIDS.
We had 7970085 decisions of which only 0 were on extended
c Switched to LRB.
We had 10813702 decisions of which only 0 were on extended
c Switched to VSIDS.
c Switched to LRB.
We had 16546118 decisions of which only 0 were on extended
c Switched to VSIDS.
We had 16663555 decisions of which only 0 were on extended
c Switched to LRB.
We had 16739158 decisions of which only 0 were on extended
We had 16785920 decisions of which only 0 were on extended
c Switched to VSIDS.
c Switched to LRB.
We had 16860544 decisions of which only 0 were on extended
c Switched to VSIDS.
We had 16909034 decisions of which only 0 were on extended
c Switched to LRB.
We had 16950447 decisions of which only 0 were on extended
c ===============================================================================
restarts                  : 469
conflicts                 : 112362         (84 /sec)
decisions                 : 16956183       (0.00 % random) (12656 /sec)
propagations              : 1436628374     (1072290 /sec)
conflict literals         : 6810075        (42.04 % deleted)

conflicts w/ DIP found    : 99304          (88.38 % of conflicts)
conflicts w/ dangerous DIP: 0              (0.00 % of conflicts)
conflicts w/ DIP-learning : 1              (0.00 % of conflicts)
decisions on ext vars     : 0              (0.00 % of decisions)
total ext vars            : 1           
tried delete ext vars     : 0           
deleted ext vars          : 0           
max ext vars              : 1           

Memory used               : 320.00 MB
CPU time                  : 1339.78 s
DIP computation time      : 4.04633 s (0.30 % of total time)
ER_sel time               : 0.149245 s
ER_add time               : 6.2e-05 s
ER_delC time              : 0 s
ER_delV time              : 0 s
ER_sub time               : 0.44985 s
ER_stat time              : 0 s

UNSATISFIABLE
